Analysis = {
  CalculateForces = Yes
  ProjectStates = {}
  WriteEigenvectors = No
  WriteBandOut = Yes
  MullikenAnalysis = Yes
  WriteNetCharges = No
  AtomResolvedEnergies = No
}
Hamiltonian = DFTB {
  Solver = RelativelyRobust {}
  MaxAngularMomentum = {
    C = "p"
    H = "s"
  }
  SlaterKosterFiles = Type2FileNames {
    Prefix = "3ob-3-1/"
    Separator = "-"
    Suffix = ".skf"
    LowerCaseTypeName = No
  }
  SCC = Yes
  SCCTolerance = 1.d-5
  MaxSCCIterations = 850000
  Filling = Fermi {
    Temperature [K] = 400
  }
  Mixer = Anderson {
    MixingParameter = 0.05
    Generations = 4
    InitMixingParameter = 0.01
    DynMixingParameters = {
1.0e-3 0.05
1.0e-4 0.1
1.0e-5 0.2
1.0e-6 0.3
    }
    DiagonalRescaling = 0.1
  }
  ReadInitialCharges = {
No
  }
  PolynomialRepulsive = {}
  ShellResolvedSCC = No
  OldSKInterpolation = No
  RangeSeparated = None {}
  InitialCharges = {}
  HCorrection = None {}
  SpinPolarisation = {}
  ElectricField = {}
  Charge = 0.0000000000000000
  OnSiteCorrection = {}
  Dispersion = {}
  Solvation = {}
  Electrostatics = GammaFunctional {}
  ThirdOrder = No
  ThirdOrderFull = No
  Differentiation = FiniteDiff {
    Delta = 1.2207031250000000E-004
  }
  ForceEvaluation = "Traditional"
}
Geometry = GenFormat {
00062 C
C H
1     1     1.126228701837161E-02     3.487317747676240E+00     6.802263274785978E-01
2     1    -1.453622955420925E-02    -3.477902840661966E+00     7.469616824917608E-01
3     1     1.999545612804757E-02     3.498494182081196E+00    -6.613778334883842E-01
4     1     1.504856218871300E-02    -3.516692850113201E+00    -6.810132961696447E-01
5     1     3.511971021171403E+00     7.051532031180173E-01    -5.620380469033797E-03
6     1    -3.464154183013775E+00     7.058943688980741E-01    -3.817175120959706E-02
7     1     3.557209713077245E+00    -6.493992080915680E-01    -3.015122879606159E-02
8     1    -3.588216093871540E+00    -6.801637870166416E-01    -6.639623292127950E-03
9     1     7.693794383978709E-01     3.109059563164509E-02     3.448559420647651E+00
10     1    -7.626972696271633E-01     3.646094448883665E-02     3.499083784357131E+00
11     1     7.102421407765663E-01     2.564733676405508E-02    -3.474520914990025E+00
12     1    -6.913285957539170E-01     3.269896951886100E-02    -3.511241938295445E+00
13     1     1.194403246690595E+00     3.069238695960737E+00     1.442224472107017E+00
14     1    -1.154811091912999E+00     3.044111749395615E+00     1.380365080251772E+00
15     1     1.157427646335323E+00    -3.011700335863990E+00     1.431781383180338E+00
16     1     1.167564898435792E+00     3.088551207373341E+00    -1.409887998021322E+00
17     1    -1.271359088752490E+00    -3.010195152504680E+00     1.445691355257621E+00
18     1    -1.122730582431874E+00     3.105351262832096E+00    -1.435148285310549E+00
19     1     1.157254339121685E+00    -3.013435499114328E+00    -1.380787124133271E+00
20     1    -1.160357157238808E+00    -3.079218363624263E+00    -1.417570890211558E+00
21     1     3.051111946517696E+00     1.436858255763394E+00     1.167722381930716E+00
22     1    -3.008373170703107E+00     1.346548004247458E+00     1.163437353338567E+00
23     1     3.066477562258415E+00    -1.511289849651382E+00     1.135753940998872E+00
24     1     3.050500408092613E+00     1.415005419660012E+00    -1.176704828505049E+00
25     1    -3.067123516586044E+00    -1.412364797982519E+00     1.232311651496671E+00
26     1    -2.996644804244789E+00     1.387988140527803E+00    -1.212695639621795E+00
27     1     3.103439813240680E+00    -1.472178504319812E+00    -1.212845650324469E+00
28     1    -3.046685995314907E+00    -1.396420232990443E+00    -1.100167687366660E+00
29     1     1.494994157572889E+00     1.251658006477430E+00     3.034884398499625E+00
30     1    -1.466052136091436E+00     1.138389864047476E+00     3.057103538208302E+00
31     1     1.434572189661369E+00    -1.168046035580770E+00     3.064314918436601E+00
32     1     1.408279558672598E+00     1.163228284429321E+00    -3.016812774348103E+00
33     1    -1.410297121465568E+00    -1.161483318084231E+00     3.097677796977328E+00
34     1    -1.445191034271926E+00     1.191426541913285E+00    -2.999980425335475E+00
35     1     1.444997849694117E+00    -1.146165021113317E+00    -3.031351343287106E+00
36     1    -1.401539195721691E+00    -1.159996630872371E+00    -2.977213481643575E+00
37     1    -2.289606701908937E+00    -2.593655163172244E+00    -7.384955413830415E-01
38     1     2.354535235155891E+00    -2.586584829639420E+00    -7.327457044198785E-01
39     1    -2.287831919497078E+00     2.559825411469725E+00    -8.004450652133793E-01
40     1    -2.385140348304598E+00    -2.590582673031849E+00     7.120180076809860E-01
41     1     2.331142112768424E+00     2.708642062112804E+00    -6.562086013636256E-01
42     1     2.338070269165211E+00    -2.644394497640647E+00     7.304671679677643E-01
43     1    -2.260631145194447E+00     2.542505952766470E+00     7.335634236220377E-01
44     1     2.321459968650424E+00     2.615128324914235E+00     7.528136186708346E-01
45     1    -2.614836268453739E+00    -7.708423611165943E-01    -2.309560456073598E+00
46     1     2.520820571705261E+00    -6.988937130644718E-01    -2.307144599086053E+00
47     1    -2.582170752251977E+00     7.049021400273681E-01    -2.297873555519271E+00
48     1    -2.650436227088769E+00    -7.522694430467540E-01     2.380956658638075E+00
49     1     2.554834059258155E+00     7.336904159967609E-01    -2.256236451017513E+00
50     1     2.608234806281397E+00    -7.629023611688527E-01     2.319772019052620E+00
51     1    -2.584696412679600E+00     6.688054890718615E-01     2.367413264569064E+00
52     1     2.553971064295588E+00     7.278961189539696E-01     2.312502445172468E+00
53     1    -7.089954040801755E-01    -2.355638892703110E+00    -2.643306379005765E+00
54     1     7.397204375491326E-01    -2.292488197492676E+00    -2.647839817134682E+00
55     1    -7.083509021607991E-01     2.307141775155274E+00    -2.542527462018611E+00
56     1    -7.283836465490094E-01    -2.363787358114927E+00     2.662065511469298E+00
57     1     6.975542337094220E-01     2.284575570558560E+00    -2.604737799273837E+00
58     1     6.866133159768697E-01    -2.321972411345836E+00     2.588893407955623E+00
59     1    -7.758886626963192E-01     2.319330356370327E+00     2.604463039867685E+00
60     1     7.287607265411326E-01     2.302335379805126E+00     2.586237443032245E+00
61     2    -4.120337602015216E-01     1.484093501596272E-01    -1.996193194752713E-01
62     2     2.994161059396704E-01    -1.837675710887552E-01    -2.625953454417285E-01
}
ParserOptions = {
  ParserVersion = 9
  WriteHSDInput = Yes
  StopAfterParsing = No
  IgnoreUnprocessedNodes = No
}
Reks = None {}
Driver = {}
ExcitedState = {}
Options = {
  WriteDetailedOut = Yes
  WriteAutotestTag = No
  WriteDetailedXML = No
  WriteResultsTag = No
  RestartFrequency = 20
  RandomSeed = 0
  WriteHS = No
  WriteRealHS = No
  MinimiseMemoryUsage = No
  ShowFoldedCoords = No
  TimingVerbosity = 1
  WriteChargesAsText = No
}
