Analysis = {
  CalculateForces = Yes
  ProjectStates = {}
  WriteEigenvectors = No
  WriteBandOut = Yes
  MullikenAnalysis = Yes
  WriteNetCharges = No
  AtomResolvedEnergies = No
}
Hamiltonian = DFTB {
  Solver = RelativelyRobust {}
  MaxAngularMomentum = {
    C = "p"
    H = "s"
  }
  SlaterKosterFiles = Type2FileNames {
    Prefix = "3ob-3-1/"
    Separator = "-"
    Suffix = ".skf"
    LowerCaseTypeName = No
  }
  SCC = Yes
  SCCTolerance = 1.d-5
  MaxSCCIterations = 850000
  Filling = Fermi {
    Temperature [K] = 400
  }
  Mixer = Anderson {
    MixingParameter = 0.05
    Generations = 4
    InitMixingParameter = 0.01
    DynMixingParameters = {
1.0e-3 0.05
1.0e-4 0.1
1.0e-5 0.2
1.0e-6 0.3
    }
    DiagonalRescaling = 0.1
  }
  ReadInitialCharges = {
No
  }
  PolynomialRepulsive = {}
  ShellResolvedSCC = No
  OldSKInterpolation = No
  RangeSeparated = None {}
  InitialCharges = {}
  HCorrection = None {}
  SpinPolarisation = {}
  ElectricField = {}
  Charge = 0.0000000000000000
  OnSiteCorrection = {}
  Dispersion = {}
  Solvation = {}
  Electrostatics = GammaFunctional {}
  ThirdOrder = No
  ThirdOrderFull = No
  Differentiation = FiniteDiff {
    Delta = 1.2207031250000000E-004
  }
  ForceEvaluation = "Traditional"
}
Geometry = GenFormat {
00062 C
C H
1     1    -1.868204093318617E-02     3.501471358556326E+00     6.845460048990908E-01
2     1    -1.043229282985755E-02    -3.463579329703245E+00     6.137355854983253E-01
3     1     3.755039780974453E-02     3.470347572785967E+00    -6.821027971395773E-01
4     1     4.824827512396791E-02    -3.495452487104882E+00    -6.692516666798887E-01
5     1     3.539744077258721E+00     7.128193053713954E-01     2.529143672718984E-02
6     1    -3.506260525325214E+00     7.200611804101243E-01     1.234385075540301E-02
7     1     3.402576556770031E+00    -7.206800027575164E-01     3.197272822348520E-03
8     1    -3.465146069297120E+00    -6.991760303793362E-01    -3.899880128249576E-02
9     1     6.779334687483630E-01     1.713966535842637E-02     3.525418646182703E+00
10     1    -6.929277261638708E-01    -3.698245124798728E-02     3.403265554872932E+00
11     1     6.889815907125555E-01    -3.247608459796370E-02    -3.466277842263553E+00
12     1    -7.498173107641304E-01     1.187873401264209E-02    -3.494505677901040E+00
13     1     1.098311694722919E+00     2.954739364082063E+00     1.448233147221056E+00
14     1    -1.144536026610340E+00     3.125299250738297E+00     1.415123235805284E+00
15     1     1.233821793669802E+00    -3.028801445736324E+00     1.412949833742519E+00
16     1     1.165631925590489E+00     3.034592453018306E+00    -1.417653431473140E+00
17     1    -1.216237772281706E+00    -3.107472856364691E+00     1.457174615882159E+00
18     1    -1.147248520226542E+00     3.092214904929004E+00    -1.481899747628613E+00
19     1     1.192275532430753E+00    -3.097693998205431E+00    -1.494579931411877E+00
20     1    -1.170134961787975E+00    -3.049356624535988E+00    -1.412788191238774E+00
21     1     3.132450428368826E+00     1.402095896638314E+00     1.168509566191648E+00
22     1    -3.102008491451874E+00     1.460682593273859E+00     1.201322094386077E+00
23     1     3.108385533162745E+00    -1.451381167058416E+00     1.193652284901594E+00
24     1     3.036926693271661E+00     1.442602526832820E+00    -1.114726308796498E+00
25     1    -3.057201444783169E+00    -1.391088024486595E+00     1.196284324236718E+00
26     1    -3.052302695029706E+00     1.403452298763709E+00    -1.193903958773050E+00
27     1     3.020928786832342E+00    -1.427336406557508E+00    -1.203758073867249E+00
28     1    -3.081815333427909E+00    -1.479581538553126E+00    -1.144301841492520E+00
29     1     1.411037515868649E+00     1.148477108127833E+00     3.062026348612882E+00
30     1    -1.400494463395108E+00     1.193683437510243E+00     3.027363264875835E+00
31     1     1.451590178134203E+00    -1.116883108867358E+00     3.072771631786225E+00
32     1     1.394982322999893E+00     1.158602399086934E+00    -3.038814946429631E+00
33     1    -1.410343365336874E+00    -1.194401317756315E+00     3.014031355443031E+00
34     1    -1.388386739449764E+00     1.167522933902493E+00    -2.983595790350241E+00
35     1     1.409941993721124E+00    -1.145126697704669E+00    -3.059253605512816E+00
36     1    -1.402921725981915E+00    -1.172935836848488E+00    -3.030814930736477E+00
37     1    -2.309983514073445E+00    -2.603462508454100E+00    -6.935522074258135E-01
38     1     2.338721128010957E+00    -2.619942400175627E+00    -7.843990947288557E-01
39     1    -2.287370124642209E+00     2.597168426033975E+00    -6.932301368080463E-01
40     1    -2.381980827643322E+00    -2.675084051117721E+00     7.361658345939580E-01
41     1     2.306611851013650E+00     2.591562750979933E+00    -7.120030145399093E-01
42     1     2.346233024344703E+00    -2.568525014170464E+00     7.386621968683538E-01
43     1    -2.305361172739610E+00     2.599765135033579E+00     6.912830802089333E-01
44     1     2.310052396074284E+00     2.604723859070654E+00     7.561420497152039E-01
45     1    -2.707512403566521E+00    -7.559290978654262E-01    -2.357960138130117E+00
46     1     2.591603453108254E+00    -7.265998389711915E-01    -2.284659586777331E+00
47     1    -2.603949150320608E+00     7.314159370164343E-01    -2.236162641726266E+00
48     1    -2.603904784058993E+00    -7.699319792808119E-01     2.315584746163224E+00
49     1     2.634059404053018E+00     7.321297845997099E-01    -2.335433176577788E+00
50     1     2.651019881755158E+00    -7.669260692312947E-01     2.358144448661138E+00
51     1    -2.637949842795300E+00     7.382001985959853E-01     2.378571264375907E+00
52     1     2.604970931159147E+00     7.582860325439008E-01     2.345766616428316E+00
53     1    -6.656180983908565E-01    -2.305620062173644E+00    -2.606564652558064E+00
54     1     6.783490675284101E-01    -2.372796456354566E+00    -2.637539513974712E+00
55     1    -6.814591534463211E-01     2.304269736077556E+00    -2.579530729345632E+00
56     1    -6.819998206863079E-01    -2.312162724707463E+00     2.625871026438811E+00
57     1     7.565142642700210E-01     2.287958616334658E+00    -2.617819105450141E+00
58     1     6.683157833494251E-01    -2.276520549641177E+00     2.687329106095817E+00
59     1    -7.469870509922597E-01     2.302756634884504E+00     2.610369886317309E+00
60     1     7.080800550357064E-01     2.348650595086692E+00     2.622396877409636E+00
61     2    -4.175343561476311E-01     1.206659183488416E-01    -1.283321383917130E-01
62     2     4.026578072534845E-01     1.285911260270034E-01    -2.091170590543914E-01
}
ParserOptions = {
  ParserVersion = 9
  WriteHSDInput = Yes
  StopAfterParsing = No
  IgnoreUnprocessedNodes = No
}
Reks = None {}
Driver = {}
ExcitedState = {}
Options = {
  WriteDetailedOut = Yes
  WriteAutotestTag = No
  WriteDetailedXML = No
  WriteResultsTag = No
  RestartFrequency = 20
  RandomSeed = 0
  WriteHS = No
  WriteRealHS = No
  MinimiseMemoryUsage = No
  ShowFoldedCoords = No
  TimingVerbosity = 1
  WriteChargesAsText = No
}
