Analysis = {
  CalculateForces = Yes
  ProjectStates = {}
  WriteEigenvectors = No
  WriteBandOut = Yes
  MullikenAnalysis = Yes
  WriteNetCharges = No
  AtomResolvedEnergies = No
}
Hamiltonian = DFTB {
  Solver = RelativelyRobust {}
  MaxAngularMomentum = {
    C = "p"
    H = "s"
  }
  SlaterKosterFiles = Type2FileNames {
    Prefix = "3ob-3-1/"
    Separator = "-"
    Suffix = ".skf"
    LowerCaseTypeName = No
  }
  SCC = Yes
  SCCTolerance = 1.d-5
  MaxSCCIterations = 850000
  Filling = Fermi {
    Temperature [K] = 400
  }
  Mixer = Anderson {
    MixingParameter = 0.05
    Generations = 4
    InitMixingParameter = 0.01
    DynMixingParameters = {
1.0e-3 0.05
1.0e-4 0.1
1.0e-5 0.2
1.0e-6 0.3
    }
    DiagonalRescaling = 0.1
  }
  ReadInitialCharges = {
No
  }
  PolynomialRepulsive = {}
  ShellResolvedSCC = No
  OldSKInterpolation = No
  RangeSeparated = None {}
  InitialCharges = {}
  HCorrection = None {}
  SpinPolarisation = {}
  ElectricField = {}
  Charge = 0.0000000000000000
  OnSiteCorrection = {}
  Dispersion = {}
  Solvation = {}
  Electrostatics = GammaFunctional {}
  ThirdOrder = No
  ThirdOrderFull = No
  Differentiation = FiniteDiff {
    Delta = 1.2207031250000000E-004
  }
  ForceEvaluation = "Traditional"
}
Geometry = GenFormat {
00062 C
C H
1     1     3.417255205649636E-03     3.523044850255727E+00     7.253460267151779E-01
2     1     1.647800504377117E-02    -3.510897970882294E+00     7.082020203510139E-01
3     1     6.535377801081315E-03     3.521593611356173E+00    -6.634187337106532E-01
4     1    -6.981750378912371E-02    -3.519115009900501E+00    -6.778595844814419E-01
5     1     3.528566145641169E+00     7.001731378539702E-01     3.214452934044765E-02
6     1    -3.486287648332945E+00     6.973852098914036E-01    -5.624221350005986E-02
7     1     3.551760964704591E+00    -7.322676475496520E-01     6.603133173577161E-02
8     1    -3.505871061773052E+00    -6.232012382343021E-01     2.091178859467591E-02
9     1     6.503126616614463E-01    -3.579403243000704E-02     3.548476529311954E+00
10     1    -6.859016651789762E-01    -2.911250846648908E-02     3.570074381975008E+00
11     1     6.380277637062234E-01    -1.571407061919329E-02    -3.466346022020960E+00
12     1    -7.166208513084600E-01     5.359402342253133E-02    -3.509089596404545E+00
13     1     1.158135436764409E+00     3.026350971846455E+00     1.451304473681201E+00
14     1    -1.196568163887661E+00     2.951390372922704E+00     1.415956540796972E+00
15     1     1.184568086863447E+00    -3.015301936383738E+00     1.407420793095101E+00
16     1     1.130163207683172E+00     3.094002686370488E+00    -1.468660427323155E+00
17     1    -1.177842175803300E+00    -3.042473976393901E+00     1.479767420802757E+00
18     1    -1.134557781402671E+00     3.012346633199708E+00    -1.415112528096790E+00
19     1     1.183842264897668E+00    -3.052269795355504E+00    -1.438560730921683E+00
20     1    -1.218814507999376E+00    -3.095821148768847E+00    -1.485007255910045E+00
21     1     3.085465556135205E+00     1.446254195326218E+00     1.088300058049239E+00
22     1    -3.090478040154004E+00     1.381968264757707E+00     1.234927215162663E+00
23     1     3.027617780115747E+00    -1.466554741245081E+00     1.143198997324448E+00
24     1     3.081329390382816E+00     1.436530289440272E+00    -1.225341462871230E+00
25     1    -3.045304955399981E+00    -1.388537075529682E+00     1.161699388864010E+00
26     1    -3.021662602951432E+00     1.400193882174227E+00    -1.220522310912001E+00
27     1     3.056467474053782E+00    -1.482347108202228E+00    -1.134610955873344E+00
28     1    -3.127616011435092E+00    -1.451069442110252E+00    -1.221815372908751E+00
29     1     1.402629233556883E+00     1.163148648165280E+00     3.042938723116806E+00
30     1    -1.434342790505498E+00     1.107016605936650E+00     3.049336932020537E+00
31     1     1.461698310233623E+00    -1.230459072154722E+00     3.068890486117123E+00
32     1     1.442267987942166E+00     1.109675975504137E+00    -3.022091764443305E+00
33     1    -1.369279323341920E+00    -1.132067115919393E+00     3.039533027067498E+00
34     1    -1.442335013329634E+00     1.199559576758777E+00    -3.129629746763701E+00
35     1     1.376809926558900E+00    -1.125856213608756E+00    -2.994619046489122E+00
36     1    -1.396498814945150E+00    -1.228717241646609E+00    -3.101186991058280E+00
37     1    -2.314930597138503E+00    -2.528081728593672E+00    -7.283319429080799E-01
38     1     2.307968749811404E+00    -2.564005690319676E+00    -6.846961516438482E-01
39     1    -2.284073219454698E+00     2.538526455801091E+00    -7.416046235370415E-01
40     1    -2.350126354541231E+00    -2.659741816379113E+00     7.452905078804518E-01
41     1     2.313316041566496E+00     2.658381835126318E+00    -7.526264662127565E-01
42     1     2.335743326357643E+00    -2.672230104015674E+00     6.986240476992678E-01
43     1    -2.370788646431826E+00     2.625978044724610E+00     6.981679895939883E-01
44     1     2.292713435933029E+00     2.611032964270524E+00     7.603946200385627E-01
45     1    -2.620717115699900E+00    -7.427539308313175E-01    -2.303055149276302E+00
46     1     2.607353272226438E+00    -7.803271849950764E-01    -2.310807183085231E+00
47     1    -2.585442884950787E+00     7.663840789680760E-01    -2.294162088622221E+00
48     1    -2.555816389084209E+00    -7.027814501480228E-01     2.279269199713973E+00
49     1     2.535503399596827E+00     7.364494824208687E-01    -2.321068955152343E+00
50     1     2.629334887201463E+00    -7.194539322706049E-01     2.249901532354956E+00
51     1    -2.584526927257983E+00     6.976143430826478E-01     2.277631142316651E+00
52     1     2.619437439341513E+00     7.306020600729786E-01     2.318923809482895E+00
53     1    -6.904775487097468E-01    -2.302768215775940E+00    -2.607451538330446E+00
54     1     6.636534520184749E-01    -2.218943321013040E+00    -2.563242435516537E+00
55     1    -7.434470140204001E-01     2.275580359778131E+00    -2.704754360540701E+00
56     1    -7.237148266849376E-01    -2.320595343852909E+00     2.617740657116957E+00
57     1     6.996165078921064E-01     2.330718969010737E+00    -2.664768037578703E+00
58     1     7.161854158985599E-01    -2.322448688787840E+00     2.627820381517547E+00
59     1    -8.077242238880025E-01     2.305225567446521E+00     2.560737489899086E+00
60     1     7.180667363181356E-01     2.308959080193876E+00     2.611524764767526E+00
61     2    -2.279026484592670E-01     8.075864136030936E-02    -1.343736078494231E-01
62     2     5.544607899525578E-01     2.213086358354103E-01     3.406644169856047E-01
}
ParserOptions = {
  ParserVersion = 9
  WriteHSDInput = Yes
  StopAfterParsing = No
  IgnoreUnprocessedNodes = No
}
Reks = None {}
Driver = {}
ExcitedState = {}
Options = {
  WriteDetailedOut = Yes
  WriteAutotestTag = No
  WriteDetailedXML = No
  WriteResultsTag = No
  RestartFrequency = 20
  RandomSeed = 0
  WriteHS = No
  WriteRealHS = No
  MinimiseMemoryUsage = No
  ShowFoldedCoords = No
  TimingVerbosity = 1
  WriteChargesAsText = No
}
