Analysis = {
  CalculateForces = Yes
  ProjectStates = {}
  WriteEigenvectors = No
  WriteBandOut = Yes
  MullikenAnalysis = Yes
  WriteNetCharges = No
  AtomResolvedEnergies = No
}
Hamiltonian = DFTB {
  Solver = RelativelyRobust {}
  MaxAngularMomentum = {
    C = "p"
    H = "s"
  }
  SlaterKosterFiles = Type2FileNames {
    Prefix = "3ob-3-1/"
    Separator = "-"
    Suffix = ".skf"
    LowerCaseTypeName = No
  }
  SCC = Yes
  SCCTolerance = 1.d-5
  MaxSCCIterations = 850000
  Filling = Fermi {
    Temperature [K] = 400
  }
  Mixer = Anderson {
    MixingParameter = 0.05
    Generations = 4
    InitMixingParameter = 0.01
    DynMixingParameters = {
1.0e-3 0.05
1.0e-4 0.1
1.0e-5 0.2
1.0e-6 0.3
    }
    DiagonalRescaling = 0.1
  }
  ReadInitialCharges = {
No
  }
  PolynomialRepulsive = {}
  ShellResolvedSCC = No
  OldSKInterpolation = No
  RangeSeparated = None {}
  InitialCharges = {}
  HCorrection = None {}
  SpinPolarisation = {}
  ElectricField = {}
  Charge = 0.0000000000000000
  OnSiteCorrection = {}
  Dispersion = {}
  Solvation = {}
  Electrostatics = GammaFunctional {}
  ThirdOrder = No
  ThirdOrderFull = No
  Differentiation = FiniteDiff {
    Delta = 1.2207031250000000E-004
  }
  ForceEvaluation = "Traditional"
}
Geometry = GenFormat {
00062 C
C H
1     1    -7.059442373620744E-03     3.457923111211879E+00     6.938317996178833E-01
2     1     1.876879530469531E-02    -3.464569013308946E+00     7.081905318269576E-01
3     1    -3.522350154583895E-03     3.489036564492008E+00    -7.167525109395723E-01
4     1     4.207954909477452E-03    -3.457099389054912E+00    -7.614679645313032E-01
5     1     3.520180711084046E+00     7.375621818219686E-01    -4.699886770326891E-02
6     1    -3.536676862815141E+00     6.849850628428438E-01    -2.704016377010433E-02
7     1     3.477423141513496E+00    -7.475090952196956E-01     4.589605624492853E-02
8     1    -3.526503570714244E+00    -7.249145984832955E-01     1.044126313689284E-02
9     1     7.257025498418617E-01     9.506631487279047E-03     3.505928448618747E+00
10     1    -7.856599946603633E-01    -7.183893379646007E-03     3.528341432358983E+00
11     1     7.077458115099955E-01     3.102401294208200E-02    -3.479309009417239E+00
12     1    -7.441105797355475E-01    -2.432306586716133E-03    -3.485641223981479E+00
13     1     1.224886059469874E+00     3.019065955773393E+00     1.413136898984532E+00
14     1    -1.183351193101509E+00     2.952653019288117E+00     1.440404599823703E+00
15     1     1.232748716805967E+00    -3.022054563421163E+00     1.398831172900429E+00
16     1     1.201957115909023E+00     3.059521675926984E+00    -1.483439852231946E+00
17     1    -1.144098689916858E+00    -3.020567690583339E+00     1.531530530551774E+00
18     1    -1.204768855975892E+00     3.018515745376214E+00    -1.481999128741369E+00
19     1     1.193527930872061E+00    -2.981242058142133E+00    -1.417094664506148E+00
20     1    -1.130408567254628E+00    -3.030325427375981E+00    -1.463966168252340E+00
21     1     3.026728357985399E+00     1.437932265849271E+00     1.180037768458135E+00
22     1    -3.078584196030257E+00     1.418407899950509E+00     1.218261426565844E+00
23     1     3.090718096952052E+00    -1.487395508822863E+00     1.259498285185859E+00
24     1     3.011295985791340E+00     1.397655681112230E+00    -1.177185238067441E+00
25     1    -3.032359626238108E+00    -1.417897328183444E+00     1.136870641169703E+00
26     1    -3.075132909304232E+00     1.471365779587424E+00    -1.205321842416872E+00
27     1     3.044231825115692E+00    -1.429170177586612E+00    -1.131718755659560E+00
28     1    -3.001999259783187E+00    -1.401350826416154E+00    -1.178812781452712E+00
29     1     1.414498498366446E+00     1.144314068652981E+00     3.056159500504144E+00
30     1    -1.408372751673757E+00     1.172200293182242E+00     3.043000865009833E+00
31     1     1.438532166361413E+00    -1.172970913276837E+00     3.052840697301496E+00
32     1     1.417184415264370E+00     1.187917618314448E+00    -3.075676536326029E+00
33     1    -1.418258298654651E+00    -1.172548626000787E+00     3.065248548756830E+00
34     1    -1.427420435660539E+00     1.176347802376081E+00    -3.115213118272540E+00
35     1     1.452998527160657E+00    -1.206883958913171E+00    -3.108782027611225E+00
36     1    -1.378264961136469E+00    -1.119524415977349E+00    -3.038739439179717E+00
37     1    -2.339827323820125E+00    -2.634494539620552E+00    -7.422543463606116E-01
38     1     2.334951953639274E+00    -2.625156195356078E+00    -7.120936972614544E-01
39     1    -2.277332838197103E+00     2.603685789054023E+00    -8.049745706681659E-01
40     1    -2.268889236442300E+00    -2.590546178614008E+00     7.730797253776500E-01
41     1     2.373752698080990E+00     2.638819996629744E+00    -7.100609289613481E-01
42     1     2.368384429086336E+00    -2.624988015651556E+00     7.681134070463401E-01
43     1    -2.272426339606274E+00     2.576973765961146E+00     6.915922046502974E-01
44     1     2.305497303799473E+00     2.600095270305788E+00     7.633008069996290E-01
45     1    -2.659389423721774E+00    -7.394964649512855E-01    -2.326031697132359E+00
46     1     2.637214987669174E+00    -7.839599698298159E-01    -2.293550130324897E+00
47     1    -2.593312620776429E+00     7.186054746934291E-01    -2.237730288232527E+00
48     1    -2.604346667990426E+00    -7.416814278085294E-01     2.349216279913269E+00
49     1     2.622017235607221E+00     6.851627573054591E-01    -2.340303229719484E+00
50     1     2.635524815971558E+00    -6.960119932354815E-01     2.300507163251734E+00
51     1    -2.586650033260632E+00     7.578440654033620E-01     2.342618179197367E+00
52     1     2.669506573198770E+00     6.683435191773911E-01     2.349527488578107E+00
53     1    -7.209983038638179E-01    -2.279312401022962E+00    -2.580294274948562E+00
54     1     7.313265492831054E-01    -2.308615885626397E+00    -2.618744055794062E+00
55     1    -7.076317626965022E-01     2.326997708399983E+00    -2.610866155928323E+00
56     1    -7.231045330029060E-01    -2.305806259053982E+00     2.663328710739971E+00
57     1     7.406984310571391E-01     2.380793480128174E+00    -2.595922677503924E+00
58     1     7.454264316863122E-01    -2.365013652266560E+00     2.552494579751582E+00
59     1    -6.789448090961651E-01     2.262101879867391E+00     2.624915506082955E+00
60     1     7.632120481480529E-01     2.302823546887605E+00     2.597171018902792E+00
61     2    -6.822595703352710E-01     2.990604493241239E-02    -5.272342766548558E-02
62     2     7.075723967664631E-02     1.426581753600226E-01    -4.361207931040257E-02
}
ParserOptions = {
  ParserVersion = 9
  WriteHSDInput = Yes
  StopAfterParsing = No
  IgnoreUnprocessedNodes = No
}
Reks = None {}
Driver = {}
ExcitedState = {}
Options = {
  WriteDetailedOut = Yes
  WriteAutotestTag = No
  WriteDetailedXML = No
  WriteResultsTag = No
  RestartFrequency = 20
  RandomSeed = 0
  WriteHS = No
  WriteRealHS = No
  MinimiseMemoryUsage = No
  ShowFoldedCoords = No
  TimingVerbosity = 1
  WriteChargesAsText = No
}
