Analysis = {
  CalculateForces = Yes
  ProjectStates = {}
  WriteEigenvectors = No
  WriteBandOut = Yes
  MullikenAnalysis = Yes
  WriteNetCharges = No
  AtomResolvedEnergies = No
}
Hamiltonian = DFTB {
  Solver = RelativelyRobust {}
  MaxAngularMomentum = {
    C = "p"
    H = "s"
  }
  SlaterKosterFiles = Type2FileNames {
    Prefix = "3ob-3-1/"
    Separator = "-"
    Suffix = ".skf"
    LowerCaseTypeName = No
  }
  SCC = Yes
  SCCTolerance = 1.d-5
  MaxSCCIterations = 850000
  Filling = Fermi {
    Temperature [K] = 400
  }
  Mixer = Anderson {
    MixingParameter = 0.05
    Generations = 4
    InitMixingParameter = 0.01
    DynMixingParameters = {
1.0e-3 0.05
1.0e-4 0.1
1.0e-5 0.2
1.0e-6 0.3
    }
    DiagonalRescaling = 0.1
  }
  ReadInitialCharges = {
No
  }
  PolynomialRepulsive = {}
  ShellResolvedSCC = No
  OldSKInterpolation = No
  RangeSeparated = None {}
  InitialCharges = {}
  HCorrection = None {}
  SpinPolarisation = {}
  ElectricField = {}
  Charge = 0.0000000000000000
  OnSiteCorrection = {}
  Dispersion = {}
  Solvation = {}
  Electrostatics = GammaFunctional {}
  ThirdOrder = No
  ThirdOrderFull = No
  Differentiation = FiniteDiff {
    Delta = 1.2207031250000000E-004
  }
  ForceEvaluation = "Traditional"
}
Geometry = GenFormat {
00062 C
C H
1     1    -2.885117861983272E-03     3.489980453488406E+00     6.400654193509431E-01
2     1     3.709606001811845E-02    -3.470206451227923E+00     6.792924752180117E-01
3     1    -1.291991727466290E-02     3.498287521109964E+00    -7.018842379988099E-01
4     1     3.774059097754449E-02    -3.493370584989201E+00    -7.063122953543907E-01
5     1     3.494679100323318E+00     6.729563850490111E-01    -2.443032977500359E-02
6     1    -3.570400050140560E+00     7.539536862164481E-01    -5.156561874578387E-02
7     1     3.476175756611641E+00    -7.217387670004523E-01     2.291983168872605E-02
8     1    -3.540037356159896E+00    -6.685448348403009E-01    -3.805295455462133E-03
9     1     7.117516648615660E-01     1.690349384897814E-02     3.443732371047326E+00
10     1    -6.474414839329862E-01    -1.650900755406271E-02     3.526524805711253E+00
11     1     7.140493607704067E-01     1.386985488496994E-02    -3.421754322093785E+00
12     1    -6.951961497313490E-01    -2.505498630110084E-02    -3.505225797568930E+00
13     1     1.149954580278643E+00     3.002236297183744E+00     1.431301243567489E+00
14     1    -1.189879405079743E+00     3.020930911470536E+00     1.455687607198656E+00
15     1     1.192393527219640E+00    -3.038950082347091E+00     1.436817589537166E+00
16     1     1.196752993475193E+00     3.093227989820052E+00    -1.432035913613975E+00
17     1    -1.171953186127359E+00    -3.067167001827766E+00     1.450038635136115E+00
18     1    -1.189001159197081E+00     3.051414755366238E+00    -1.464819995472929E+00
19     1     1.167833909800944E+00    -3.077566100592956E+00    -1.455942013021133E+00
20     1    -1.197680466664195E+00    -3.096372988045804E+00    -1.421889722295871E+00
21     1     3.063061305142893E+00     1.424674174884439E+00     1.127420624155665E+00
22     1    -3.053303983282985E+00     1.410370215506852E+00     1.194954885150409E+00
23     1     3.025845101943834E+00    -1.443278656967128E+00     1.164263058368016E+00
24     1     3.065810394484450E+00     1.476358034018848E+00    -1.127080854109674E+00
25     1    -3.084270788596159E+00    -1.358533846955381E+00     1.127492029892610E+00
26     1    -3.019352817806731E+00     1.464594378346630E+00    -1.152053428280313E+00
27     1     3.050888781565175E+00    -1.421000423330317E+00    -1.180892617905392E+00
28     1    -3.080853410946963E+00    -1.460102823163824E+00    -1.145662694485038E+00
29     1     1.415351722376471E+00     1.199094509429743E+00     3.058049533051389E+00
30     1    -1.482306486159956E+00     1.214516949653347E+00     3.090620738007603E+00
31     1     1.418791720756443E+00    -1.140519655179915E+00     3.024878217725510E+00
32     1     1.420837777810805E+00     1.186466088802783E+00    -2.984379548173913E+00
33     1    -1.428132546655734E+00    -1.185521329560268E+00     3.077899568225468E+00
34     1    -1.422135609716938E+00     1.194994607138254E+00    -3.035361083720240E+00
35     1     1.456768208464271E+00    -1.158031739920825E+00    -3.080847792090536E+00
36     1    -1.418473670341614E+00    -1.212904427318942E+00    -3.050305902627434E+00
37     1    -2.375925991195125E+00    -2.583253727536311E+00    -6.975236562170641E-01
38     1     2.357962162942047E+00    -2.648424231108028E+00    -7.443261180484821E-01
39     1    -2.274072937636913E+00     2.570827238413398E+00    -6.763456403274133E-01
40     1    -2.355825307984737E+00    -2.667834444000189E+00     7.501990530105191E-01
41     1     2.278566033914937E+00     2.622098310180005E+00    -7.007803243153126E-01
42     1     2.313148310205082E+00    -2.600725755232037E+00     7.429776772461724E-01
43     1    -2.320422654487198E+00     2.601886869008272E+00     7.693335287440727E-01
44     1     2.282200724826136E+00     2.604047134604308E+00     7.324845865593860E-01
45     1    -2.646990231718402E+00    -7.391337998975225E-01    -2.281010636491334E+00
46     1     2.617545625325117E+00    -7.904419058816821E-01    -2.331630733276740E+00
47     1    -2.623680647881685E+00     7.477561399977343E-01    -2.276868260749284E+00
48     1    -2.509338797431555E+00    -6.957101625079766E-01     2.296133614210619E+00
49     1     2.624402570134458E+00     7.490249467329896E-01    -2.293889351020806E+00
50     1     2.590294749971838E+00    -7.034621219412507E-01     2.342033058898893E+00
51     1    -2.625604981898975E+00     7.425134196068670E-01     2.355806962632663E+00
52     1     2.601408988429681E+00     8.171957347450673E-01     2.279319250988991E+00
53     1    -6.888125024710883E-01    -2.270856750692741E+00    -2.593247265079222E+00
54     1     7.773032719334114E-01    -2.362868275401418E+00    -2.624977434806325E+00
55     1    -6.706298252157770E-01     2.291434361047562E+00    -2.607454081263746E+00
56     1    -7.121995045187887E-01    -2.350932956422393E+00     2.597067370220493E+00
57     1     7.779391649652001E-01     2.344569936061246E+00    -2.608192675528281E+00
58     1     7.186417675694416E-01    -2.386009240123684E+00     2.635766692358631E+00
59     1    -7.454562301400418E-01     2.350411796386921E+00     2.570188199106981E+00
60     1     7.719519966006977E-01     2.233998114260516E+00     2.630686792476316E+00
61     2    -4.241441921513570E-01    -1.533164694749192E-01    -3.725008454464632E-01
62     2     3.720199595749341E-01     1.476304553175152E-01     1.010244425694016E-01
}
ParserOptions = {
  ParserVersion = 9
  WriteHSDInput = Yes
  StopAfterParsing = No
  IgnoreUnprocessedNodes = No
}
Reks = None {}
Driver = {}
ExcitedState = {}
Options = {
  WriteDetailedOut = Yes
  WriteAutotestTag = No
  WriteDetailedXML = No
  WriteResultsTag = No
  RestartFrequency = 20
  RandomSeed = 0
  WriteHS = No
  WriteRealHS = No
  MinimiseMemoryUsage = No
  ShowFoldedCoords = No
  TimingVerbosity = 1
  WriteChargesAsText = No
}
