Analysis = {
  CalculateForces = Yes
  ProjectStates = {}
  WriteEigenvectors = No
  WriteBandOut = Yes
  MullikenAnalysis = Yes
  WriteNetCharges = No
  AtomResolvedEnergies = No
}
Hamiltonian = DFTB {
  Solver = RelativelyRobust {}
  MaxAngularMomentum = {
    C = "p"
    H = "s"
  }
  SlaterKosterFiles = Type2FileNames {
    Prefix = "3ob-3-1/"
    Separator = "-"
    Suffix = ".skf"
    LowerCaseTypeName = No
  }
  SCC = Yes
  SCCTolerance = 1.d-5
  MaxSCCIterations = 850000
  Filling = Fermi {
    Temperature [K] = 400
  }
  Mixer = Anderson {
    MixingParameter = 0.05
    Generations = 4
    InitMixingParameter = 0.01
    DynMixingParameters = {
1.0e-3 0.05
1.0e-4 0.1
1.0e-5 0.2
1.0e-6 0.3
    }
    DiagonalRescaling = 0.1
  }
  ReadInitialCharges = {
No
  }
  PolynomialRepulsive = {}
  ShellResolvedSCC = No
  OldSKInterpolation = No
  RangeSeparated = None {}
  InitialCharges = {}
  HCorrection = None {}
  SpinPolarisation = {}
  ElectricField = {}
  Charge = 0.0000000000000000
  OnSiteCorrection = {}
  Dispersion = {}
  Solvation = {}
  Electrostatics = GammaFunctional {}
  ThirdOrder = No
  ThirdOrderFull = No
  Differentiation = FiniteDiff {
    Delta = 1.2207031250000000E-004
  }
  ForceEvaluation = "Traditional"
}
Geometry = GenFormat {
00062 C
C H
1     1    -7.908740788396895E-02     3.487589873905542E+00     6.762751643595454E-01
2     1    -9.470180673774550E-03    -3.529986454029420E+00     6.839975827355743E-01
3     1    -1.835772039694252E-02     3.364475424393591E+00    -6.860023804524895E-01
4     1    -1.288739862916801E-02    -3.516398619152625E+00    -7.023889321490103E-01
5     1     3.450942355075095E+00     6.872441602988093E-01    -2.716136856461912E-02
6     1    -3.629243052080722E+00     7.297652809784351E-01     1.078072040759545E-03
7     1     3.507123873176548E+00    -7.167371134894741E-01    -8.670631458108700E-03
8     1    -3.480456712766428E+00    -7.435317856129514E-01     2.313526733492966E-02
9     1     6.812990422522287E-01     8.293318359920119E-03     3.443033885824625E+00
10     1    -7.376380471809816E-01    -1.266575395845528E-03     3.522374231421380E+00
11     1     6.403691013954328E-01    -2.202630615669664E-02    -3.474030263883821E+00
12     1    -7.215544592832833E-01     8.502061776295426E-04    -3.530920821696159E+00
13     1     1.219518644661864E+00     3.084765118223601E+00     1.437127965119309E+00
14     1    -1.188396304248492E+00     3.092593014967831E+00     1.355284330189150E+00
15     1     1.149986497867195E+00    -2.943904712888779E+00     1.433732214526637E+00
16     1     1.186720274786993E+00     3.051315117241747E+00    -1.430046185753563E+00
17     1    -1.176102595272957E+00    -3.053003500419146E+00     1.419605455618224E+00
18     1    -1.192428045771653E+00     3.087963777120241E+00    -1.393209757142800E+00
19     1     1.238249627890647E+00    -3.048130326206238E+00    -1.422130844929270E+00
20     1    -1.186161627502564E+00    -3.085658600132432E+00    -1.477877126488588E+00
21     1     3.122118041229363E+00     1.411599054432554E+00     1.201644779327963E+00
22     1    -3.036607385041258E+00     1.477056074816579E+00     1.138228291963150E+00
23     1     3.058563121440441E+00    -1.410121007564727E+00     1.178615449820871E+00
24     1     3.059756415618164E+00     1.426554496937135E+00    -1.215739543162728E+00
25     1    -3.107134274300739E+00    -1.460294004908389E+00     1.218136839662227E+00
26     1    -3.119140008425363E+00     1.512208103385204E+00    -1.129269112607566E+00
27     1     3.025181879181469E+00    -1.391932316224908E+00    -1.173572105146117E+00
28     1    -3.048099662499213E+00    -1.483526666921644E+00    -1.146507507382015E+00
29     1     1.461474554473721E+00     1.186661641660154E+00     3.003616730801597E+00
30     1    -1.483896790986435E+00     1.195434686065594E+00     3.080886247575146E+00
31     1     1.445347452761588E+00    -1.154376361934434E+00     3.055692804864142E+00
32     1     1.427800338186217E+00     1.159827422070385E+00    -2.999504826855659E+00
33     1    -1.471182836025961E+00    -1.194620874969128E+00     3.076470227405472E+00
34     1    -1.445494842893956E+00     1.167232663125565E+00    -3.053488992284158E+00
35     1     1.385128375046740E+00    -1.205231380743978E+00    -3.032047194102109E+00
36     1    -1.376729648634870E+00    -1.193324868967682E+00    -3.058631232287703E+00
37     1    -2.310604783961224E+00    -2.612553353958970E+00    -7.255990398030568E-01
38     1     2.313947682731175E+00    -2.579766705109964E+00    -7.264233622830519E-01
39     1    -2.320640132245212E+00     2.656906955795511E+00    -7.246824017106412E-01
40     1    -2.330057458498469E+00    -2.591654885485164E+00     6.987149273373932E-01
41     1     2.314578449639984E+00     2.667288195067292E+00    -6.818886270064898E-01
42     1     2.323461356939719E+00    -2.571980527983673E+00     6.865717575734878E-01
43     1    -2.315510018598854E+00     2.617347483118928E+00     7.320370769328384E-01
44     1     2.393853047917891E+00     2.573842951570414E+00     7.875152500850306E-01
45     1    -2.540246233037866E+00    -6.704397405919874E-01    -2.349807866304396E+00
46     1     2.634615931485801E+00    -7.372713847642026E-01    -2.340620687677336E+00
47     1    -2.643552402949932E+00     7.888611586111667E-01    -2.329681761800528E+00
48     1    -2.614668792318200E+00    -7.059246638186827E-01     2.302318236630507E+00
49     1     2.619917699428130E+00     7.409339122264237E-01    -2.364531412524977E+00
50     1     2.624922592341532E+00    -7.242751089648047E-01     2.328675283987051E+00
51     1    -2.579687868289233E+00     7.402700657117387E-01     2.333079015354282E+00
52     1     2.582620188844381E+00     7.439088850646712E-01     2.325122874993812E+00
53     1    -6.776119046178071E-01    -2.320157564982244E+00    -2.612183340814201E+00
54     1     7.750027653258137E-01    -2.340200374151552E+00    -2.597961978496130E+00
55     1    -7.275157456979875E-01     2.343117957514607E+00    -2.632992686166811E+00
56     1    -7.126550012667989E-01    -2.272710039681955E+00     2.583994520982102E+00
57     1     7.018167660805186E-01     2.310499628409656E+00    -2.553613196454689E+00
58     1     6.985302800677318E-01    -2.297580200060914E+00     2.646778707374565E+00
59     1    -6.860992094407226E-01     2.304381461266248E+00     2.657852278475449E+00
60     1     7.419693748267553E-01     2.273366464437956E+00     2.587397684303994E+00
61     2    -2.384205672592545E-01    -1.954198549167033E-01     3.471151867899913E-03
62     2     4.324902477423498E-01    -1.181581150745244E-01    -2.128256810266262E-02
}
ParserOptions = {
  ParserVersion = 9
  WriteHSDInput = Yes
  StopAfterParsing = No
  IgnoreUnprocessedNodes = No
}
Reks = None {}
Driver = {}
ExcitedState = {}
Options = {
  WriteDetailedOut = Yes
  WriteAutotestTag = No
  WriteDetailedXML = No
  WriteResultsTag = No
  RestartFrequency = 20
  RandomSeed = 0
  WriteHS = No
  WriteRealHS = No
  MinimiseMemoryUsage = No
  ShowFoldedCoords = No
  TimingVerbosity = 1
  WriteChargesAsText = No
}
