Analysis = {
  CalculateForces = Yes
  ProjectStates = {}
  WriteEigenvectors = No
  WriteBandOut = Yes
  MullikenAnalysis = Yes
  WriteNetCharges = No
  AtomResolvedEnergies = No
}
Hamiltonian = DFTB {
  Solver = RelativelyRobust {}
  MaxAngularMomentum = {
    C = "p"
    H = "s"
  }
  SlaterKosterFiles = Type2FileNames {
    Prefix = "3ob-3-1/"
    Separator = "-"
    Suffix = ".skf"
    LowerCaseTypeName = No
  }
  SCC = Yes
  SCCTolerance = 1.d-5
  MaxSCCIterations = 850000
  Filling = Fermi {
    Temperature [K] = 400
  }
  Mixer = Anderson {
    MixingParameter = 0.05
    Generations = 4
    InitMixingParameter = 0.01
    DynMixingParameters = {
1.0e-3 0.05
1.0e-4 0.1
1.0e-5 0.2
1.0e-6 0.3
    }
    DiagonalRescaling = 0.1
  }
  ReadInitialCharges = {
No
  }
  PolynomialRepulsive = {}
  ShellResolvedSCC = No
  OldSKInterpolation = No
  RangeSeparated = None {}
  InitialCharges = {}
  HCorrection = None {}
  SpinPolarisation = {}
  ElectricField = {}
  Charge = 0.0000000000000000
  OnSiteCorrection = {}
  Dispersion = {}
  Solvation = {}
  Electrostatics = GammaFunctional {}
  ThirdOrder = No
  ThirdOrderFull = No
  Differentiation = FiniteDiff {
    Delta = 1.2207031250000000E-004
  }
  ForceEvaluation = "Traditional"
}
Geometry = GenFormat {
00062 C
C H
1     1    -3.793010221783607E-03     3.442266721376630E+00     6.981254207515611E-01
2     1    -2.001957328582084E-02    -3.488409292514800E+00     7.490030875892753E-01
3     1     9.277000495114313E-03     3.427049824341722E+00    -6.476082471763162E-01
4     1     9.687822138246709E-04    -3.476323491948481E+00    -6.522285058104015E-01
5     1     3.522519151572327E+00     7.413823591412813E-01    -6.121547979127581E-02
6     1    -3.524313461982461E+00     6.867122381092963E-01    -1.044515911204697E-02
7     1     3.509755123242154E+00    -7.118959004080900E-01    -3.225923522780854E-02
8     1    -3.547240106533756E+00    -7.442665578026453E-01    -7.170967299710097E-02
9     1     6.343390488733752E-01    -1.942470951264597E-02     3.463736024565368E+00
10     1    -6.580114071927227E-01     1.009094363930191E-02     3.460527575473258E+00
11     1     6.903582719350601E-01     1.891826948941942E-02    -3.487254431753389E+00
12     1    -6.493046513854505E-01    -3.481459989597009E-03    -3.523217209871539E+00
13     1     1.173552704084998E+00     2.997198514292922E+00     1.396112001567566E+00
14     1    -1.162571066171515E+00     2.971098287354760E+00     1.447938109237008E+00
15     1     1.140732323851313E+00    -3.086028181328706E+00     1.429183190788337E+00
16     1     1.184867519545814E+00     3.016956225729502E+00    -1.433279052337181E+00
17     1    -1.153695296074880E+00    -3.022072908771496E+00     1.440795869277728E+00
18     1    -1.192840361759427E+00     3.026837623257928E+00    -1.438338937258876E+00
19     1     1.216939027310316E+00    -3.051953108241381E+00    -1.466600453244881E+00
20     1    -1.173777029015332E+00    -3.065756083856751E+00    -1.463603991837196E+00
21     1     3.063200922607228E+00     1.394169637949287E+00     1.220710338250903E+00
22     1    -3.053740200627673E+00     1.432025222620814E+00     1.197372138286258E+00
23     1     3.005165245439087E+00    -1.410046352094121E+00     1.147431031939733E+00
24     1     3.082524880637070E+00     1.437297245945395E+00    -1.203867517680214E+00
25     1    -3.046109077661773E+00    -1.392397682369288E+00     1.155477017341476E+00
26     1    -3.092526755872295E+00     1.448545556602139E+00    -1.130712257034410E+00
27     1     3.078590737073535E+00    -1.434950286783011E+00    -1.199999939434035E+00
28     1    -3.074010910580492E+00    -1.477649344773858E+00    -1.173850412582667E+00
29     1     1.440797949161079E+00     1.173187486111209E+00     3.037911433244619E+00
30     1    -1.445182411938176E+00     1.126172064757198E+00     3.051839990158165E+00
31     1     1.475609137668242E+00    -1.169158217481167E+00     3.021401057786320E+00
32     1     1.454095866572628E+00     1.227344782324329E+00    -2.969103597529539E+00
33     1    -1.475257440922469E+00    -1.150541915005797E+00     3.025916917469477E+00
34     1    -1.422047092693766E+00     1.132741592648817E+00    -3.001900014625071E+00
35     1     1.447012502627294E+00    -1.220681048634579E+00    -3.039425011319560E+00
36     1    -1.475832164753865E+00    -1.146284814985388E+00    -3.155265986026744E+00
37     1    -2.351053138568389E+00    -2.603353704495208E+00    -7.498932739538707E-01
38     1     2.355085816125468E+00    -2.619189427001730E+00    -7.274369514418093E-01
39     1    -2.296238833807552E+00     2.636465756509460E+00    -6.616010688160436E-01
40     1    -2.315261595301954E+00    -2.618919133123591E+00     7.868115760797271E-01
41     1     2.323116538981790E+00     2.557320564635931E+00    -7.959230443640417E-01
42     1     2.301762557367677E+00    -2.595049214212994E+00     7.345818621203015E-01
43     1    -2.356109831263784E+00     2.652528857195592E+00     7.287010482864306E-01
44     1     2.395125954974373E+00     2.623730420662005E+00     6.484892692074178E-01
45     1    -2.599143135050223E+00    -7.476577913783000E-01    -2.391924917463941E+00
46     1     2.671705526023401E+00    -7.196048577723529E-01    -2.291777228732280E+00
47     1    -2.593219518625245E+00     7.849615392243662E-01    -2.204030880397162E+00
48     1    -2.591305284487780E+00    -7.370045828301303E-01     2.326692197363323E+00
49     1     2.673012587518696E+00     7.701724293456281E-01    -2.330052142162088E+00
50     1     2.617810439841880E+00    -6.581716824526365E-01     2.356613632491324E+00
51     1    -2.622230514257027E+00     7.504367431664349E-01     2.254262135333041E+00
52     1     2.674744247108745E+00     7.331494453257862E-01     2.357020261197759E+00
53     1    -6.513607863252118E-01    -2.272213796705541E+00    -2.580340701309863E+00
54     1     7.116985404289324E-01    -2.348177114567217E+00    -2.634368086900767E+00
55     1    -7.231898877615037E-01     2.258877240264465E+00    -2.597041582008612E+00
56     1    -7.297780866801218E-01    -2.267200998023810E+00     2.597326283164783E+00
57     1     6.961593200879695E-01     2.310208294092030E+00    -2.582343772697256E+00
58     1     7.492273757877298E-01    -2.320906199324745E+00     2.621647815406523E+00
59     1    -7.138139484742649E-01     2.291390471600375E+00     2.632208168423237E+00
60     1     7.435693946120757E-01     2.361588793569589E+00     2.543519068480848E+00
61     2    -5.408503795529518E-01     1.363861371019895E-01    -2.095901864480627E-01
62     2     2.105522541591285E-01     1.433104535804702E-03     3.868440127863738E-01
}
ParserOptions = {
  ParserVersion = 9
  WriteHSDInput = Yes
  StopAfterParsing = No
  IgnoreUnprocessedNodes = No
}
Reks = None {}
Driver = {}
ExcitedState = {}
Options = {
  WriteDetailedOut = Yes
  WriteAutotestTag = No
  WriteDetailedXML = No
  WriteResultsTag = No
  RestartFrequency = 20
  RandomSeed = 0
  WriteHS = No
  WriteRealHS = No
  MinimiseMemoryUsage = No
  ShowFoldedCoords = No
  TimingVerbosity = 1
  WriteChargesAsText = No
}
