Analysis = {
  CalculateForces = Yes
  ProjectStates = {}
  WriteEigenvectors = No
  WriteBandOut = Yes
  MullikenAnalysis = Yes
  WriteNetCharges = No
  AtomResolvedEnergies = No
}
Hamiltonian = DFTB {
  Solver = RelativelyRobust {}
  MaxAngularMomentum = {
    C = "p"
    H = "s"
  }
  SlaterKosterFiles = Type2FileNames {
    Prefix = "3ob-3-1/"
    Separator = "-"
    Suffix = ".skf"
    LowerCaseTypeName = No
  }
  SCC = Yes
  SCCTolerance = 1.d-5
  MaxSCCIterations = 850000
  Filling = Fermi {
    Temperature [K] = 400
  }
  Mixer = Anderson {
    MixingParameter = 0.05
    Generations = 4
    InitMixingParameter = 0.01
    DynMixingParameters = {
1.0e-3 0.05
1.0e-4 0.1
1.0e-5 0.2
1.0e-6 0.3
    }
    DiagonalRescaling = 0.1
  }
  ReadInitialCharges = {
No
  }
  PolynomialRepulsive = {}
  ShellResolvedSCC = No
  OldSKInterpolation = No
  RangeSeparated = None {}
  InitialCharges = {}
  HCorrection = None {}
  SpinPolarisation = {}
  ElectricField = {}
  Charge = 0.0000000000000000
  OnSiteCorrection = {}
  Dispersion = {}
  Solvation = {}
  Electrostatics = GammaFunctional {}
  ThirdOrder = No
  ThirdOrderFull = No
  Differentiation = FiniteDiff {
    Delta = 1.2207031250000000E-004
  }
  ForceEvaluation = "Traditional"
}
Geometry = GenFormat {
00062 C
C H
1     1    -4.290122961373075E-02     3.523894130739718E+00     6.827452274854698E-01
2     1    -5.717265580916132E-03    -3.606250867425708E+00     7.115225653913811E-01
3     1    -1.392929407088799E-02     3.510619953334755E+00    -6.314575614047898E-01
4     1     2.234301590631195E-02    -3.536021080605102E+00    -7.024724951617961E-01
5     1     3.459238887855241E+00     7.211787359748485E-01    -2.298475930934111E-02
6     1    -3.520237825678479E+00     7.815695463964100E-01     5.404073716165010E-02
7     1     3.463406658130192E+00    -7.600322187230769E-01    -1.072203848996535E-02
8     1    -3.479871136817295E+00    -7.089669162005392E-01     2.779437058552702E-02
9     1     7.161466474124212E-01    -1.889373876920420E-02     3.461687912523789E+00
10     1    -6.880608606466407E-01    -4.777488800211805E-02     3.479678802818134E+00
11     1     7.896709602826686E-01     4.071569229805673E-02    -3.540690826812944E+00
12     1    -6.729295768190658E-01    -4.044925622798434E-02    -3.490515166013445E+00
13     1     1.116309348264982E+00     3.107089837999655E+00     1.451638564414576E+00
14     1    -1.180805495199200E+00     3.113070716201041E+00     1.381286311747355E+00
15     1     1.162219798110829E+00    -3.002891339510937E+00     1.441457034509169E+00
16     1     1.152497532179760E+00     3.011371082668627E+00    -1.426858568130442E+00
17     1    -1.153653974263352E+00    -3.040249612981665E+00     1.410543425413934E+00
18     1    -1.211918219335047E+00     3.035469805733978E+00    -1.438048745190392E+00
19     1     1.197516764296992E+00    -3.049804809041667E+00    -1.409720126914340E+00
20     1    -1.210365046982118E+00    -3.061886116414784E+00    -1.479804132745313E+00
21     1     3.019451437407355E+00     1.483223927745044E+00     1.139985119067028E+00
22     1    -3.119303313297253E+00     1.489775030050483E+00     1.240691773207140E+00
23     1     3.071236204304404E+00    -1.444561826025990E+00     1.143345485523154E+00
24     1     3.056379994910399E+00     1.501434941466131E+00    -1.224313193991834E+00
25     1    -2.962058530307538E+00    -1.406993905178675E+00     1.169231599201538E+00
26     1    -3.039615505331532E+00     1.436725380346640E+00    -1.200659863051976E+00
27     1     3.054061774513008E+00    -1.413496496067975E+00    -1.137869786929321E+00
28     1    -3.095374096736754E+00    -1.464006353098214E+00    -1.125515772352013E+00
29     1     1.460732975406861E+00     1.163887593730447E+00     3.042912171900927E+00
30     1    -1.392254917460769E+00     1.148487680008368E+00     3.030672249571841E+00
31     1     1.383452049907540E+00    -1.183208886412750E+00     3.021773267665442E+00
32     1     1.409484472279190E+00     1.206842626177298E+00    -2.970106672300305E+00
33     1    -1.479783458734193E+00    -1.176803091820926E+00     3.014193263277625E+00
34     1    -1.361589422586616E+00     1.191485610944941E+00    -3.083848463459636E+00
35     1     1.455283552838723E+00    -1.160372529358439E+00    -3.066808373543529E+00
36     1    -1.459686529421433E+00    -1.173109296926090E+00    -3.038590334029849E+00
37     1    -2.288263534112044E+00    -2.640880540919772E+00    -7.237565267268707E-01
38     1     2.297664344906311E+00    -2.584266146313987E+00    -7.062842351503545E-01
39     1    -2.303584604674057E+00     2.622427691979685E+00    -7.361311510924515E-01
40     1    -2.372859397863587E+00    -2.634302785254298E+00     7.269972823126446E-01
41     1     2.355094982255551E+00     2.582258587015911E+00    -7.235584925544459E-01
42     1     2.310554638842337E+00    -2.649692210358936E+00     7.509159054267596E-01
43     1    -2.280427160164171E+00     2.629809798631125E+00     7.125966877039021E-01
44     1     2.334258037598417E+00     2.583726869410839E+00     7.621607608164053E-01
45     1    -2.623634476077189E+00    -7.552251761983080E-01    -2.334466674097250E+00
46     1     2.685827137681829E+00    -7.800603737683302E-01    -2.270390296751521E+00
47     1    -2.652734391933488E+00     7.698555724737428E-01    -2.307817625660673E+00
48     1    -2.611380910577858E+00    -7.239699820238388E-01     2.336434912891669E+00
49     1     2.653475818781943E+00     6.765646481097513E-01    -2.321436662722487E+00
50     1     2.611296051536330E+00    -6.755042582505357E-01     2.320210368921245E+00
51     1    -2.628229192955523E+00     7.287527419388271E-01     2.360101674075616E+00
52     1     2.658891497811350E+00     6.972670663524747E-01     2.234975863560681E+00
53     1    -7.485286303467481E-01    -2.331549846157389E+00    -2.562918014787055E+00
54     1     7.512436282571960E-01    -2.278354997860808E+00    -2.567320669679270E+00
55     1    -7.782144481958002E-01     2.330167549510723E+00    -2.594821068957111E+00
56     1    -7.054797830361361E-01    -2.378446054548433E+00     2.624478981395211E+00
57     1     7.606480701611454E-01     2.353319077045187E+00    -2.621286780889239E+00
58     1     6.953381876225092E-01    -2.328359822808669E+00     2.580168425186202E+00
59     1    -7.584786127960521E-01     2.355905970898359E+00     2.636801347454719E+00
60     1     7.443620165675328E-01     2.369399991179942E+00     2.606884419867831E+00
61     2    -3.945324981409934E-01    -7.480079958733232E-02    -5.346537835530726E-02
62     2     3.883014035876624E-01    -3.511486956697574E-02    -3.330028398887961E-02
}
ParserOptions = {
  ParserVersion = 9
  WriteHSDInput = Yes
  StopAfterParsing = No
  IgnoreUnprocessedNodes = No
}
Reks = None {}
Driver = {}
ExcitedState = {}
Options = {
  WriteDetailedOut = Yes
  WriteAutotestTag = No
  WriteDetailedXML = No
  WriteResultsTag = No
  RestartFrequency = 20
  RandomSeed = 0
  WriteHS = No
  WriteRealHS = No
  MinimiseMemoryUsage = No
  ShowFoldedCoords = No
  TimingVerbosity = 1
  WriteChargesAsText = No
}
