Analysis = {
  CalculateForces = Yes
  ProjectStates = {}
  WriteEigenvectors = No
  WriteBandOut = Yes
  MullikenAnalysis = Yes
  WriteNetCharges = No
  AtomResolvedEnergies = No
}
Hamiltonian = DFTB {
  Solver = RelativelyRobust {}
  MaxAngularMomentum = {
    C = "p"
    H = "s"
  }
  SlaterKosterFiles = Type2FileNames {
    Prefix = "3ob-3-1/"
    Separator = "-"
    Suffix = ".skf"
    LowerCaseTypeName = No
  }
  SCC = Yes
  SCCTolerance = 1.d-5
  MaxSCCIterations = 850000
  Filling = Fermi {
    Temperature [K] = 400
  }
  Mixer = Anderson {
    MixingParameter = 0.05
    Generations = 4
    InitMixingParameter = 0.01
    DynMixingParameters = {
1.0e-3 0.05
1.0e-4 0.1
1.0e-5 0.2
1.0e-6 0.3
    }
    DiagonalRescaling = 0.1
  }
  ReadInitialCharges = {
No
  }
  PolynomialRepulsive = {}
  ShellResolvedSCC = No
  OldSKInterpolation = No
  RangeSeparated = None {}
  InitialCharges = {}
  HCorrection = None {}
  SpinPolarisation = {}
  ElectricField = {}
  Charge = 0.0000000000000000
  OnSiteCorrection = {}
  Dispersion = {}
  Solvation = {}
  Electrostatics = GammaFunctional {}
  ThirdOrder = No
  ThirdOrderFull = No
  Differentiation = FiniteDiff {
    Delta = 1.2207031250000000E-004
  }
  ForceEvaluation = "Traditional"
}
Geometry = GenFormat {
00062 C
C H
1     1    -1.277917492154614E-02     3.523367559667755E+00     6.781093243597892E-01
2     1    -5.936221950152267E-03    -3.506588775003649E+00     7.689040427336802E-01
3     1    -6.293592536564974E-04     3.577335120507387E+00    -6.782998287471673E-01
4     1     3.709041991699487E-03    -3.522596689904952E+00    -7.457309061869507E-01
5     1     3.510565024224423E+00     6.697795270780841E-01    -1.952495174841788E-02
6     1    -3.408762602621211E+00     7.075365403899936E-01    -2.358846483717409E-02
7     1     3.441778524486145E+00    -7.701159917020032E-01     8.034905457569595E-02
8     1    -3.475977834925011E+00    -6.925394617209486E-01    -2.076945968646728E-02
9     1     7.330512026324081E-01    -4.165862766413327E-02     3.527588671373656E+00
10     1    -6.875908778074411E-01     1.196608366661998E-02     3.492835589206090E+00
11     1     6.687562837031940E-01     4.665967501079125E-04    -3.463911337414467E+00
12     1    -7.142858134638271E-01     5.008866412951064E-02    -3.422714416109828E+00
13     1     1.232371933121402E+00     3.066307212510312E+00     1.488047661807509E+00
14     1    -1.181442685975715E+00     3.116931315268651E+00     1.485299333091022E+00
15     1     1.181070803103373E+00    -3.007252566397370E+00     1.409237566016734E+00
16     1     1.146701505785035E+00     3.045336467240702E+00    -1.437599034623226E+00
17     1    -1.106570512738255E+00    -3.112942433181856E+00     1.478926711294925E+00
18     1    -1.153890114628972E+00     3.168223506560431E+00    -1.470862485362984E+00
19     1     1.127053307562975E+00    -3.028809655967386E+00    -1.372328855779030E+00
20     1    -1.234172057096653E+00    -3.019024600995408E+00    -1.425779737813763E+00
21     1     3.111009834716921E+00     1.399244958674158E+00     1.154204060981240E+00
22     1    -2.983632552347435E+00     1.453989397898647E+00     1.154303598985932E+00
23     1     3.084773596605721E+00    -1.440754857355613E+00     1.189777967181563E+00
24     1     2.965543563465579E+00     1.405236978921907E+00    -1.209386419644076E+00
25     1    -3.097020530469104E+00    -1.485263034547239E+00     1.145557432173976E+00
26     1    -3.056604089756688E+00     1.469472281933930E+00    -1.219735042781569E+00
27     1     3.062568629601661E+00    -1.491823803096234E+00    -1.186731927959545E+00
28     1    -3.017177059634746E+00    -1.424309826710299E+00    -1.211082257539081E+00
29     1     1.454958393221589E+00     1.226332580935598E+00     3.067514571786891E+00
30     1    -1.386836158408678E+00     1.180065680803209E+00     3.011261719256803E+00
31     1     1.471892182200542E+00    -1.156969007813999E+00     3.048373529137039E+00
32     1     1.455849531562714E+00     1.199146600965763E+00    -2.955372895461279E+00
33     1    -1.434757643285574E+00    -1.161754801965199E+00     3.034576681750758E+00
34     1    -1.532539399418220E+00     1.178383726345934E+00    -3.046738613641985E+00
35     1     1.460165220812728E+00    -1.134455700220303E+00    -3.016331224923583E+00
36     1    -1.360996332216782E+00    -1.177357928184019E+00    -3.072886126594651E+00
37     1    -2.279243604944970E+00    -2.622498439361805E+00    -7.186009182189602E-01
38     1     2.339742898193975E+00    -2.644121292329583E+00    -7.441997492104101E-01
39     1    -2.309108110397989E+00     2.641984337606041E+00    -7.080717151763708E-01
40     1    -2.303856060842329E+00    -2.654085822982039E+00     7.518642883601211E-01
41     1     2.300889945646739E+00     2.597027885786931E+00    -7.208747713985337E-01
42     1     2.385233042931467E+00    -2.575553314051478E+00     7.313253129931626E-01
43     1    -2.310891834183579E+00     2.684583048658490E+00     7.143229163984672E-01
44     1     2.294188443312128E+00     2.587088251845830E+00     7.018022798042559E-01
45     1    -2.563022479835034E+00    -7.628742631241787E-01    -2.323292118923459E+00
46     1     2.636135377530489E+00    -7.894636466792130E-01    -2.338961177803750E+00
47     1    -2.682679819005994E+00     7.221092471934872E-01    -2.317433585509658E+00
48     1    -2.614359731454831E+00    -7.915237448742853E-01     2.308887391695479E+00
49     1     2.627241110256510E+00     7.738650974398252E-01    -2.240935416836624E+00
50     1     2.602192650854767E+00    -7.005300194028913E-01     2.335060328881877E+00
51     1    -2.672991676439191E+00     7.629960590610735E-01     2.362684923081555E+00
52     1     2.577220167300531E+00     7.271946715359314E-01     2.288243732690950E+00
53     1    -6.880669511241985E-01    -2.341588349936384E+00    -2.631266085256738E+00
54     1     8.026804398606211E-01    -2.322696498376959E+00    -2.591440839800777E+00
55     1    -7.725643823902698E-01     2.267241694083419E+00    -2.648450826776605E+00
56     1    -7.371355141284178E-01    -2.264005963814467E+00     2.579896720956135E+00
57     1     6.680880202501862E-01     2.311907557022333E+00    -2.547307699389426E+00
58     1     7.181084068463364E-01    -2.252588974862247E+00     2.555980395515161E+00
59     1    -7.137162948734965E-01     2.237819084500417E+00     2.569653437526216E+00
60     1     7.744294623440209E-01     2.230669446916902E+00     2.570255529640044E+00
61     2    -5.771517226505356E-01    -9.124304586737349E-03    -3.594116946580121E-02
62     2     2.384732954576350E-01    -8.884895092621954E-02    -1.186950305458161E-01
}
ParserOptions = {
  ParserVersion = 9
  WriteHSDInput = Yes
  StopAfterParsing = No
  IgnoreUnprocessedNodes = No
}
Reks = None {}
Driver = {}
ExcitedState = {}
Options = {
  WriteDetailedOut = Yes
  WriteAutotestTag = No
  WriteDetailedXML = No
  WriteResultsTag = No
  RestartFrequency = 20
  RandomSeed = 0
  WriteHS = No
  WriteRealHS = No
  MinimiseMemoryUsage = No
  ShowFoldedCoords = No
  TimingVerbosity = 1
  WriteChargesAsText = No
}
