Analysis = {
  CalculateForces = Yes
  ProjectStates = {}
  WriteEigenvectors = No
  WriteBandOut = Yes
  MullikenAnalysis = Yes
  WriteNetCharges = No
  AtomResolvedEnergies = No
}
Hamiltonian = DFTB {
  Solver = RelativelyRobust {}
  MaxAngularMomentum = {
    C = "p"
    H = "s"
  }
  SlaterKosterFiles = Type2FileNames {
    Prefix = "3ob-3-1/"
    Separator = "-"
    Suffix = ".skf"
    LowerCaseTypeName = No
  }
  SCC = Yes
  SCCTolerance = 1.d-5
  MaxSCCIterations = 850000
  Filling = Fermi {
    Temperature [K] = 400
  }
  Mixer = Anderson {
    MixingParameter = 0.05
    Generations = 4
    InitMixingParameter = 0.01
    DynMixingParameters = {
1.0e-3 0.05
1.0e-4 0.1
1.0e-5 0.2
1.0e-6 0.3
    }
    DiagonalRescaling = 0.1
  }
  ReadInitialCharges = {
No
  }
  PolynomialRepulsive = {}
  ShellResolvedSCC = No
  OldSKInterpolation = No
  RangeSeparated = None {}
  InitialCharges = {}
  HCorrection = None {}
  SpinPolarisation = {}
  ElectricField = {}
  Charge = 0.0000000000000000
  OnSiteCorrection = {}
  Dispersion = {}
  Solvation = {}
  Electrostatics = GammaFunctional {}
  ThirdOrder = No
  ThirdOrderFull = No
  Differentiation = FiniteDiff {
    Delta = 1.2207031250000000E-004
  }
  ForceEvaluation = "Traditional"
}
Geometry = GenFormat {
00062 C
C H
1     1     4.087728015941489E-03     3.470233802105382E+00     7.713335592706287E-01
2     1     1.490035234205456E-02    -3.490547125909419E+00     7.199146193469909E-01
3     1     5.788834235279883E-02     3.493911051215564E+00    -6.820694480744960E-01
4     1    -2.622462632938387E-02    -3.520342162079510E+00    -7.373320198043071E-01
5     1     3.508417685162736E+00     6.837846040905072E-01     9.454722155741888E-04
6     1    -3.415308992772014E+00     6.987296692947773E-01     5.183931868947253E-02
7     1     3.521759306937304E+00    -6.329914372853541E-01     1.519599770239320E-02
8     1    -3.488927860479990E+00    -6.538706482435814E-01    -1.954740863430114E-02
9     1     7.177244715202357E-01    -4.979532943932310E-02     3.463014029448023E+00
10     1    -7.519920214045277E-01    -4.260758540400142E-03     3.513549916756049E+00
11     1     6.933307485674208E-01     2.855419105556607E-02    -3.547818785194905E+00
12     1    -7.804621818220098E-01     2.312653162065259E-02    -3.491426966109436E+00
13     1     1.224254792419263E+00     3.107139914530779E+00     1.437863149474386E+00
14     1    -1.193872963126548E+00     3.037046945284326E+00     1.414779998948660E+00
15     1     1.134094322453313E+00    -3.028243562719538E+00     1.433141803917064E+00
16     1     1.104184668244699E+00     3.015641288428772E+00    -1.429545006717561E+00
17     1    -1.159878401503485E+00    -3.055682597940275E+00     1.465710039046402E+00
18     1    -1.141030674693377E+00     2.970903797831909E+00    -1.381589301936838E+00
19     1     1.193845044031627E+00    -2.987473225776504E+00    -1.411623589113322E+00
20     1    -1.134583054555902E+00    -2.985662034566264E+00    -1.408938932248962E+00
21     1     3.033850330511249E+00     1.458858147521583E+00     1.175037834692460E+00
22     1    -3.075422542904746E+00     1.481377779054601E+00     1.175499558296415E+00
23     1     3.039417979433990E+00    -1.404692511291168E+00     1.156356733590440E+00
24     1     3.033078510788528E+00     1.479098814507812E+00    -1.211110190710702E+00
25     1    -3.048585764657228E+00    -1.477266869859432E+00     1.176157462938618E+00
26     1    -2.979269430846988E+00     1.367243422391593E+00    -1.193133626392577E+00
27     1     3.016205478422237E+00    -1.449693324311473E+00    -1.165307050529988E+00
28     1    -3.096699743592336E+00    -1.442424202433513E+00    -1.200059009778874E+00
29     1     1.423021653070337E+00     1.179321896553571E+00     3.009062793003015E+00
30     1    -1.432205769478126E+00     1.191441935285425E+00     3.039361819533287E+00
31     1     1.427130345851242E+00    -1.223703041683461E+00     3.059443963890324E+00
32     1     1.393966365596165E+00     1.187211902466316E+00    -3.056791059349483E+00
33     1    -1.447161760513092E+00    -1.189804067570256E+00     3.009696031670710E+00
34     1    -1.451099005097275E+00     1.177197050693684E+00    -3.089813883516031E+00
35     1     1.464308191610726E+00    -1.190547196569062E+00    -3.072081553151475E+00
36     1    -1.473548793056373E+00    -1.231120563661894E+00    -3.100024141133256E+00
37     1    -2.314520012677706E+00    -2.613259725814861E+00    -7.512159469050126E-01
38     1     2.335077549857914E+00    -2.686442877627699E+00    -7.303448864841214E-01
39     1    -2.331693048799835E+00     2.640513344412874E+00    -7.160430495094841E-01
40     1    -2.301801703576761E+00    -2.642887195404928E+00     7.164636913266843E-01
41     1     2.298327595273881E+00     2.555144633602659E+00    -7.354079876404341E-01
42     1     2.330435755879048E+00    -2.647627586102252E+00     7.303948044706650E-01
43     1    -2.295894834413476E+00     2.634975753747917E+00     7.377617007905919E-01
44     1     2.338751218349379E+00     2.636494445619461E+00     7.475086235812777E-01
45     1    -2.630944704268417E+00    -7.432285361895740E-01    -2.339349816097251E+00
46     1     2.608108478616279E+00    -7.045725116297019E-01    -2.274325496928459E+00
47     1    -2.644747090273431E+00     7.389790774624928E-01    -2.413981206305673E+00
48     1    -2.690592264387943E+00    -6.891388069763745E-01     2.324065611346862E+00
49     1     2.577597894188831E+00     7.376553255716294E-01    -2.316483822003990E+00
50     1     2.641377740607431E+00    -7.338714725924543E-01     2.265061999022136E+00
51     1    -2.644508158205276E+00     7.480799475454530E-01     2.423094000016055E+00
52     1     2.541495364279054E+00     7.196582506178913E-01     2.331091760993740E+00
53     1    -7.386205085293615E-01    -2.315556951304170E+00    -2.619227929329386E+00
54     1     7.301055605931140E-01    -2.302213036751388E+00    -2.600490077263061E+00
55     1    -7.344339195787827E-01     2.253899358654527E+00    -2.621892074191635E+00
56     1    -7.937885515969278E-01    -2.316150969324378E+00     2.643325950460645E+00
57     1     7.805792438141796E-01     2.393788545741358E+00    -2.680877452235715E+00
58     1     7.467507935178479E-01    -2.321745933013234E+00     2.642191472368739E+00
59     1    -7.091242415634177E-01     2.329442940231976E+00     2.593537343008355E+00
60     1     7.218550185662153E-01     2.392075891243631E+00     2.609811544092581E+00
61     2    -2.272531602471741E-01    -1.799705529844157E-01     1.517705969141087E-01
62     2     4.981504775481872E-01     8.322886055779680E-02    -6.149752865019850E-03
}
ParserOptions = {
  ParserVersion = 9
  WriteHSDInput = Yes
  StopAfterParsing = No
  IgnoreUnprocessedNodes = No
}
Reks = None {}
Driver = {}
ExcitedState = {}
Options = {
  WriteDetailedOut = Yes
  WriteAutotestTag = No
  WriteDetailedXML = No
  WriteResultsTag = No
  RestartFrequency = 20
  RandomSeed = 0
  WriteHS = No
  WriteRealHS = No
  MinimiseMemoryUsage = No
  ShowFoldedCoords = No
  TimingVerbosity = 1
  WriteChargesAsText = No
}
