Analysis = {
  CalculateForces = Yes
  ProjectStates = {}
  WriteEigenvectors = No
  WriteBandOut = Yes
  MullikenAnalysis = Yes
  WriteNetCharges = No
  AtomResolvedEnergies = No
}
Hamiltonian = DFTB {
  Solver = RelativelyRobust {}
  MaxAngularMomentum = {
    C = "p"
    H = "s"
  }
  SlaterKosterFiles = Type2FileNames {
    Prefix = "3ob-3-1/"
    Separator = "-"
    Suffix = ".skf"
    LowerCaseTypeName = No
  }
  SCC = Yes
  SCCTolerance = 1.d-5
  MaxSCCIterations = 850000
  Filling = Fermi {
    Temperature [K] = 400
  }
  Mixer = Anderson {
    MixingParameter = 0.05
    Generations = 4
    InitMixingParameter = 0.01
    DynMixingParameters = {
1.0e-3 0.05
1.0e-4 0.1
1.0e-5 0.2
1.0e-6 0.3
    }
    DiagonalRescaling = 0.1
  }
  ReadInitialCharges = {
No
  }
  PolynomialRepulsive = {}
  ShellResolvedSCC = No
  OldSKInterpolation = No
  RangeSeparated = None {}
  InitialCharges = {}
  HCorrection = None {}
  SpinPolarisation = {}
  ElectricField = {}
  Charge = 0.0000000000000000
  OnSiteCorrection = {}
  Dispersion = {}
  Solvation = {}
  Electrostatics = GammaFunctional {}
  ThirdOrder = No
  ThirdOrderFull = No
  Differentiation = FiniteDiff {
    Delta = 1.2207031250000000E-004
  }
  ForceEvaluation = "Traditional"
}
Geometry = GenFormat {
00062 C
C H
1     1    -3.364731928546384E-02     3.512641720610634E+00     7.351512283730423E-01
2     1    -2.260979498548210E-02    -3.487685483333961E+00     7.382291242924438E-01
3     1     5.456780309266002E-02     3.465537102079966E+00    -6.562279384162415E-01
4     1     2.240331430941955E-02    -3.493080615725972E+00    -6.339566825190748E-01
5     1     3.535531695273542E+00     6.516047415203242E-01    -2.187094489296890E-02
6     1    -3.538279221088844E+00     6.814229374976579E-01     3.837750074739954E-02
7     1     3.489377087811830E+00    -7.119958326760116E-01     2.538226662290884E-02
8     1    -3.376613015387265E+00    -6.997407263741098E-01     3.078354291495785E-02
9     1     7.138207013077745E-01    -5.478538490253287E-04     3.509461041868823E+00
10     1    -6.505471379032567E-01    -4.259814016601619E-02     3.507604017607924E+00
11     1     7.127701763990065E-01     4.195409969638676E-02    -3.530994777328402E+00
12     1    -7.569707916850762E-01     5.192093389613411E-02    -3.502867175456758E+00
13     1     1.178529619930107E+00     3.125157821424123E+00     1.449163262759619E+00
14     1    -1.242182305949505E+00     3.037807543461545E+00     1.382937967903236E+00
15     1     1.143001704169241E+00    -3.050286260364017E+00     1.491883236075499E+00
16     1     1.185918154234436E+00     2.993342977511871E+00    -1.389737822001846E+00
17     1    -1.173298308345813E+00    -3.003001842198143E+00     1.400456154607552E+00
18     1    -1.157029159629393E+00     3.063686928554816E+00    -1.462801140038036E+00
19     1     1.177204153555735E+00    -3.027123738485869E+00    -1.405473056836985E+00
20     1    -1.206465012698315E+00    -3.004131884583750E+00    -1.424806479044037E+00
21     1     3.034620161398808E+00     1.403307036269998E+00     1.184160969085657E+00
22     1    -3.055837687762248E+00     1.488754877379496E+00     1.156324681539936E+00
23     1     3.037466946323404E+00    -1.377255614500989E+00     1.192463932656215E+00
24     1     3.064028162693978E+00     1.429543903970918E+00    -1.130793078432489E+00
25     1    -2.972581333836668E+00    -1.440935666905538E+00     1.164460123315544E+00
26     1    -3.066004489727642E+00     1.380258651395632E+00    -1.209017248363121E+00
27     1     3.107219043307611E+00    -1.502267826415152E+00    -1.183222598136906E+00
28     1    -3.056162839294469E+00    -1.468221084683181E+00    -1.174769500489764E+00
29     1     1.433333351725062E+00     1.209559924748372E+00     3.019990178998509E+00
30     1    -1.427121417299798E+00     1.196486798043711E+00     3.071074368892542E+00
31     1     1.412872979959657E+00    -1.182353729258274E+00     3.058525153776776E+00
32     1     1.405087191253748E+00     1.223659067489732E+00    -2.994046878253312E+00
33     1    -1.399685474708098E+00    -1.213543054676980E+00     3.069988750570669E+00
34     1    -1.458721842939337E+00     1.196069348408600E+00    -3.043982301998395E+00
35     1     1.384803580687773E+00    -1.132665999054163E+00    -3.079459910380822E+00
36     1    -1.442367701300957E+00    -1.159997021142141E+00    -3.084241342495276E+00
37     1    -2.339343829797420E+00    -2.561689211211262E+00    -7.010397641917566E-01
38     1     2.323821639380273E+00    -2.631527271324678E+00    -6.470212082962158E-01
39     1    -2.374263798546340E+00     2.621340156838007E+00    -7.710198369500717E-01
40     1    -2.371664620787832E+00    -2.620261637870466E+00     7.293579628117925E-01
41     1     2.301919945055840E+00     2.561740699340183E+00    -6.722131691075611E-01
42     1     2.237962383849855E+00    -2.611832508016726E+00     7.234980983701075E-01
43     1    -2.372516547375677E+00     2.605840497444782E+00     7.836949457486890E-01
44     1     2.332535190576019E+00     2.590880804783562E+00     6.880976441865312E-01
45     1    -2.635944075718363E+00    -7.374809511315302E-01    -2.359069006802822E+00
46     1     2.594901237325864E+00    -6.976762895864508E-01    -2.339118027645405E+00
47     1    -2.625486159736476E+00     7.461481392976768E-01    -2.325962063022313E+00
48     1    -2.577161582087924E+00    -7.494198839606926E-01     2.274227115438832E+00
49     1     2.583952446703156E+00     7.360955048587948E-01    -2.324409119400515E+00
50     1     2.622929103520914E+00    -7.436330051255678E-01     2.352653207802947E+00
51     1    -2.606885483469735E+00     7.590547891826160E-01     2.313350467665503E+00
52     1     2.564523153769525E+00     7.349497582201744E-01     2.285961478295088E+00
53     1    -7.136622695031755E-01    -2.362679655203089E+00    -2.629028624638593E+00
54     1     7.509774671207915E-01    -2.317792763155499E+00    -2.647811250627063E+00
55     1    -7.326713490034725E-01     2.345801093418630E+00    -2.646594655553571E+00
56     1    -7.117114620567588E-01    -2.362044222426388E+00     2.638405981305544E+00
57     1     7.249063012373163E-01     2.422200012015978E+00    -2.678550427425721E+00
58     1     7.613336844160189E-01    -2.341175680036175E+00     2.677498261796694E+00
59     1    -7.423749550189183E-01     2.299190761857811E+00     2.557849652631241E+00
60     1     7.544540632084675E-01     2.346454931625132E+00     2.607728426079476E+00
61     2    -1.964070206329832E-01     1.241980326860839E-01    -1.530934840417610E-01
62     2     3.896741868765510E-01    -3.119543950185473E-01    -3.559896586847045E-02
}
ParserOptions = {
  ParserVersion = 9
  WriteHSDInput = Yes
  StopAfterParsing = No
  IgnoreUnprocessedNodes = No
}
Reks = None {}
Driver = {}
ExcitedState = {}
Options = {
  WriteDetailedOut = Yes
  WriteAutotestTag = No
  WriteDetailedXML = No
  WriteResultsTag = No
  RestartFrequency = 20
  RandomSeed = 0
  WriteHS = No
  WriteRealHS = No
  MinimiseMemoryUsage = No
  ShowFoldedCoords = No
  TimingVerbosity = 1
  WriteChargesAsText = No
}
